NAME : rc201.2.8839655.tour
COMMENT : Length = 8839655
COMMENT : Found by LKH [Keld Helsgaun] Tue May  2 05:49:38 2017
TYPE : TOUR
DIMENSION : 29
TOUR_SECTION
1
27
29
20
11
6
5
7
9
8
19
21
22
15
13
14
24
26
28
17
4
12
10
2
25
16
3
23
18
-1
EOF
